1 100
0 40.0 50.0 0.0 0.0 0 240
2 25.0 85.0 10.0 20.0 130 190
3 22.0 75.0 10.0 30.0 35 95
4 22.0 85.0 10.0 10.0 94 154
5 20.0 80.0 10.0 40.0 126 186
6 20.0 85.0 10.0 20.0 40 100
7 18.0 75.0 10.0 20.0 80 140
8 15.0 75.0 10.0 20.0 64 124
9 15.0 80.0 10.0 10.0 76 136
10 10.0 35.0 10.0 20.0 76 136
11 10.0 40.0 10.0 30.0 104 164
12 8.0 40.0 10.0 40.0 44 104
13 8.0 45.0 10.0 20.0 49 109
14 5.0 35.0 10.0 10.0 127 187
15 5.0 45.0 10.0 10.0 35 95
16 2.0 40.0 10.0 20.0 43 103
17 0.0 40.0 10.0 20.0 57 117
18 0.0 45.0 10.0 20.0 129 189
19 44.0 5.0 10.0 20.0 72 132
20 42.0 10.0 10.0 40.0 57 117
21 42.0 15.0 10.0 10.0 107 167
22 40.0 5.0 10.0 10.0 52 112
23 40.0 15.0 10.0 40.0 77 137
24 38.0 5.0 10.0 30.0 50 110
25 38.0 15.0 10.0 10.0 133 193
26 35.0 5.0 10.0 20.0 124 184
27 95.0 30.0 10.0 30.0 100 160
28 95.0 35.0 10.0 20.0 57 117
29 92.0 30.0 10.0 10.0 55 115
30 90.0 35.0 10.0 10.0 52 112
31 88.0 30.0 10.0 10.0 59 119
32 88.0 35.0 10.0 20.0 50 110
33 87.0 30.0 10.0 10.0 116 176
34 85.0 25.0 10.0 10.0 51 111
35 85.0 35.0 10.0 30.0 96 156
36 67.0 85.0 10.0 20.0 124 184
37 65.0 85.0 10.0 40.0 43 103
38 65.0 82.0 10.0 10.0 109 169
39 62.0 80.0 10.0 30.0 60 120
40 60.0 80.0 10.0 10.0 36 96
41 60.0 85.0 10.0 30.0 70 130
42 58.0 75.0 10.0 20.0 77 137
43 55.0 80.0 10.0 10.0 33 93
44 55.0 85.0 10.0 20.0 113 173
45 55.0 82.0 10.0 10.0 49 109
46 20.0 82.0 10.0 10.0 37 97
47 18.0 80.0 10.0 10.0 98 158
48 2.0 45.0 10.0 10.0 38 98
49 42.0 5.0 10.0 10.0 124 184
50 42.0 12.0 10.0 10.0 89 149
51 72.0 35.0 10.0 30.0 101 161
52 55.0 20.0 10.0 19.0 68 128
53 25.0 30.0 10.0 3.0 37 97
54 20.0 50.0 10.0 5.0 76 136
55 55.0 60.0 10.0 16.0 124 184
56 30.0 60.0 10.0 16.0 125 185
57 50.0 35.0 10.0 19.0 115 175
58 30.0 25.0 10.0 23.0 81 141
59 15.0 10.0 10.0 20.0 122 182
60 10.0 20.0 10.0 19.0 42 102
61 15.0 60.0 10.0 17.0 140 200
62 45.0 65.0 10.0 9.0 51 111
63 65.0 35.0 10.0 3.0 37 97
64 65.0 20.0 10.0 6.0 39 99
65 45.0 30.0 10.0 17.0 38 98
66 35.0 40.0 10.0 16.0 11 71
67 41.0 37.0 10.0 16.0 118 178
68 64.0 42.0 10.0 9.0 55 115
69 40.0 60.0 10.0 21.0 129 189
70 31.0 52.0 10.0 27.0 26 86
71 35.0 69.0 10.0 23.0 150 210
72 65.0 55.0 10.0 14.0 50 110
73 63.0 65.0 10.0 8.0 27 87
74 2.0 60.0 10.0 5.0 62 122
75 20.0 20.0 10.0 8.0 126 186
76 5.0 5.0 10.0 16.0 59 119
77 60.0 12.0 10.0 31.0 60 120
78 23.0 3.0 10.0 7.0 120 180
79 8.0 56.0 10.0 27.0 75 135
80 6.0 68.0 10.0 30.0 74 134
81 47.0 47.0 10.0 13.0 162 222
82 49.0 58.0 10.0 10.0 71 131
83 27.0 43.0 10.0 9.0 27 87
84 37.0 31.0 10.0 14.0 20 80
85 57.0 29.0 10.0 18.0 81 141
86 63.0 23.0 10.0 2.0 72 132
87 21.0 24.0 10.0 28.0 72 132
88 12.0 24.0 10.0 13.0 75 135
89 24.0 58.0 10.0 19.0 52 112
90 67.0 5.0 10.0 25.0 117 177
91 37.0 47.0 10.0 6.0 71 131
92 49.0 42.0 10.0 13.0 152 212
93 53.0 43.0 10.0 14.0 14 74
94 61.0 52.0 10.0 3.0 148 208
95 57.0 48.0 10.0 23.0 80 140
96 56.0 37.0 10.0 6.0 20 80
97 55.0 54.0 10.0 26.0 117 177
98 4.0 18.0 10.0 35.0 105 165
99 26.0 52.0 10.0 9.0 31 91
100 26.0 35.0 10.0 15.0 62 122
101 31.0 67.0 10.0 3.0 150 210